NAME: random-70-7037
TYPE: TSP
COMMENT: size=70 seed=7037
DIMENSION: 142
EDGE_WEIGHT_TYPE: EUC_2D
NODE_COORD_SECTION
+0 859 738
-0 859 738
+1 807 684
-1 971 767
+2 491 914
-2 674 320
+3 195 333
-3 247 242
+4 965 35
-4 474 554
+5 972 949
-5 65 900
+6 482 92
-6 54 439
+7 423 97
-7 554 701
+8 582 781
-8 157 498
+9 426 179
-9 892 587
+10 293 506
-10 546 685
+11 97 948
-11 168 792
+12 585 272
-12 766 94
+13 765 630
-13 100 493
+14 907 800
-14 104 789
+15 912 792
-15 762 373
+16 516 589
-16 965 310
+17 593 375
-17 645 456
+18 492 271
-18 636 722
+19 544 88
-19 99 660
+20 480 824
-20 456 469
+21 606 5
-21 425 660
+22 336 982
-22 876 266
+23 595 317
-23 951 351
+24 839 582
-24 141 147
+25 230 265
-25 640 298
+26 662 12
-26 587 585
+27 158 419
-27 399 92
+28 971 79
-28 636 551
+29 26 204
-29 53 945
+30 540 605
-30 391 291
+31 332 51
-31 628 474
+32 238 196
-32 927 69
+33 155 806
-33 421 361
+34 863 758
-34 423 687
+35 486 966
-35 595 935
+36 199 458
-36 621 298
+37 617 483
-37 509 965
+38 273 768
-38 636 335
+39 216 566
-39 507 465
+40 183 978
-40 948 280
+41 53 263
-41 493 875
+42 993 869
-42 181 474
+43 175 79
-43 728 40
+44 690 233
-44 434 698
+45 272 275
-45 340 211
+46 644 687
-46 398 533
+47 331 661
-47 876 496
+48 267 664
-48 379 714
+49 536 963
-49 246 83
+50 372 88
-50 204 400
+51 74 510
-51 360 81
+52 384 978
-52 935 543
+53 413 425
-53 795 162
+54 698 712
-54 464 427
+55 350 98
-55 595 386
+56 439 563
-56 732 294
+57 184 987
-57 93 559
+58 409 995
-58 592 779
+59 207 269
-59 154 666
+60 819 17
-60 5 350
+61 488 838
-61 602 236
+62 121 208
-62 640 724
+63 922 543
-63 925 880
+64 617 564
-64 379 923
+65 267 18
-65 78 635
+66 101 41
-66 910 826
+67 479 973
-67 829 876
+68 679 54
-68 978 383
+69 474 196
-69 466 255
+70 604 131
-70 695 896
PRECEDENCE_SECTION
+0 -0
+1 -1
+2 -2
+3 -3
+4 -4
+5 -5
+6 -6
+7 -7
+8 -8
+9 -9
+10 -10
+11 -11
+12 -12
+13 -13
+14 -14
+15 -15
+16 -16
+17 -17
+18 -18
+19 -19
+20 -20
+21 -21
+22 -22
+23 -23
+24 -24
+25 -25
+26 -26
+27 -27
+28 -28
+29 -29
+30 -30
+31 -31
+32 -32
+33 -33
+34 -34
+35 -35
+36 -36
+37 -37
+38 -38
+39 -39
+40 -40
+41 -41
+42 -42
+43 -43
+44 -44
+45 -45
+46 -46
+47 -47
+48 -48
+49 -49
+50 -50
+51 -51
+52 -52
+53 -53
+54 -54
+55 -55
+56 -56
+57 -57
+58 -58
+59 -59
+60 -60
+61 -61
+62 -62
+63 -63
+64 -64
+65 -65
+66 -66
+67 -67
+68 -68
+69 -69
+70 -70
EOF
